 &CONTROL
                 calculation = 'scf' ,
                      outdir = '/home/kanjouri/NNaCs/data/typeC/10.9' ,
                      wfcdir = '/home/kanjouri/NNaCs/data/typeC/10.9' ,
                  pseudo_dir = './ps' ,
                      prefix = 'NNaCs' ,
               etot_conv_thr = 1.0d-6 ,
               forc_conv_thr = 1.0d-5 ,
		disk_io      = 'none'
                     tstress = .true. ,
                     tprnfor = .true. ,
/
&SYSTEM
                       ibrav = 2,
                   celldm(1) = 10.9,
                         nat = 3,
                        ntyp = 3,
                     ecutwfc = 80 ,
                     ecutrho = 320 ,
			occupations = 'smearing'
			degauss = 0.02
			smearing = 'methfessel-paxton'
                     starting_magnetization(1) = 0.9 ,
                     starting_magnetization(2) = 0.5 ,
                     starting_magnetization(3) = 0.5 ,
/
&ELECTRONS
            electron_maxstep = 400,
            conv_thr = 10d-10 ,
            mixing_beta = 0.4D0 ,
/

&CELL
               cell_dynamics = 'bfgs' ,
/

ATOMIC_SPECIES
    N  14.0067 N.pbe-n-kjpaw_psl.1.0.0.UPF
    Na 22.989769 Na.pbe-spnl-kjpaw_psl.1.0.0.UPF
    Cs 132.90545 Cs.pbe-spnl-kjpaw_psl.1.0.0.UPF
ATOMIC_POSITIONS (crystal)
N	0	0	0
Na	0.5	0.5	0.5
Cs	0.75	0.75	0.75
K_POINTS automatic 
10	10	10   1 1 1 


